edges = [{1, 2, 31}, {32, 1, 2, 3}, {33, 2, 3, 4}, {34, 3, 4, 5}, {35, 4, 5, 6}, {36, 5, 6, 7}, {8, 37, 6, 7}, {8, 9, 38, 7}, {8, 9, 10, 39}, {40, 9, 10}, {42, 11, 12}, {43, 11, 12, 13}, {12, 13, 14, 44}, {13, 14}, {16, 46, 15}, {16, 17, 47, 15}, {16, 17, 18, 48}, {17, 18, 19}, {49, 18, 19, 20}, {50, 19, 20, 21}, {51, 20, 21, 22}, {52, 21, 22, 23}, {24, 53, 22, 23}, {24, 25, 23}, {24, 25, 26, 54}, {25, 26, 27, 55}, {56, 26, 27, 28}, {27, 28, 29}, {57, 28, 29, 30}, {58, 29, 30}, {32, 1, 59, 31}, {32, 33, 2, 31}, {32, 33, 34, 3, 60}, {33, 34, 35, 4, 61}, {34, 35, 36, 5, 62}, {35, 36, 37, 6, 63}, {64, 36, 37, 38, 7}, {65, 37, 38, 39, 8}, {66, 38, 39, 40, 9}, {67, 39, 40, 41, 10}, {40, 41, 42, 68}, {41, 42, 11, 43}, {69, 42, 43, 12, 44}, {43, 44, 13, 70}, {72, 45, 46}, {73, 45, 46, 47, 15}, {74, 46, 47, 16, 48}, {48, 17, 75, 47}, {49, 50, 19}, {77, 49, 50, 51, 20}, {78, 50, 51, 52, 21}, {51, 52, 53, 22}, {52, 53, 79, 23}, {81, 25, 54, 55}, {82, 54, 55, 56, 26}, {56, 27, 55}, {57, 58, 29}, {57, 58, 84, 30}, {59, 85, 31}, {33, 60, 61, 87}, {34, 60, 61, 62}, {35, 88, 61, 62, 63}, {64, 36, 89, 62, 63}, {64, 65, 37, 90, 63}, {64, 65, 66, 38}, {65, 66, 67, 39, 91}, {40, 66, 67, 68}, {41, 67, 68}, {43, 93, 69, 70}, {69, 70, 71, 44, 94}, {72, 70, 71}, {71, 72, 73, 45, 95}, {72, 73, 74, 46}, {96, 73, 74, 75, 47}, {97, 74, 75, 76, 48}, {98, 75, 76}, {50, 100, 77, 78}, {101, 51, 77, 78}, {80, 103, 53, 79}, {80, 81, 79}, {104, 80, 81, 82, 54}, {81, 82, 105, 55}, {107, 83}, {58, 84, 109}, {110, 59, 85, 86}, {111, 85, 86, 87}, {112, 60, 86, 87}, {88, 89, 114, 62}, {115, 88, 89, 90, 63}, {64, 89, 90, 116}, {66, 91, 118}, {121, 92, 93}, {69, 122, 92, 93, 94}, {70, 123, 93, 94}, {72, 95}, {96, 97, 74, 126}, {96, 97, 98, 75, 127}, {97, 98, 99, 76}, {128, 98, 99, 100}, {129, 99, 100, 101, 77}, {130, 100, 101, 102, 78}, {101, 102, 103}, {102, 79, 103}, {104, 81, 132, 105}, {104, 105, 82, 106}, {105, 106, 107, 133}, {134, 106, 107, 108, 83}, {107, 108, 109, 135}, {108, 136, 84, 109}, {85, 110, 111}, {137, 110, 111, 112, 86}, {112, 113, 111, 87}, {112, 113, 114, 138}, {88, 113, 114, 115}, {139, 114, 115, 116, 89}, {90, 115, 116, 117}, {140, 116, 117, 118}, {141, 117, 118, 119, 91}, {120, 142, 118, 119}, {120, 121, 143, 119}, {144, 120, 121, 122, 92}, {145, 121, 122, 123, 93}, {122, 123, 124, 94}, {146, 123, 124}, {147, 125, 126}, {96, 148, 125, 126, 127}, {97, 126, 127}, {128, 129, 99}, {128, 129, 130, 100, 150}, {129, 130, 101}, {152, 131, 132}, {104, 153, 131, 132}, {106, 133, 134}, {133, 134, 135, 107, 155}, {134, 135, 136, 108, 156}, {136, 109, 157, 135}, {137, 158, 111}, {160, 113, 138}, {115, 139}, {163, 140, 117, 141}, {142, 140, 141, 118}, {164, 141, 142, 143, 119}, {120, 144, 142, 143}, {144, 121, 145, 143}, {144, 145, 122, 165}, {146, 124, 167}, {168, 147, 148, 125}, {169, 147, 148, 126}, {171, 149}, {129, 173, 150}, {152, 151}, {131, 175, 151, 152, 153}, {132, 176, 152, 153, 154}, {153, 154}, {155, 156, 134}, {135, 178, 155, 156, 157}, {136, 156, 157}, {137, 180, 158, 159}, {160, 158, 159}, {160, 161, 138, 181, 159}, {160, 161, 182}, {184, 162, 163}, {185, 162, 163, 140}, {164, 142}, {145, 165, 166}, {188, 165, 166, 167}, {146, 189, 166, 167}, {168, 169, 147, 191}, {192, 168, 169, 170, 148}, {169, 170, 171, 193}, {194, 170, 171, 172, 149}, {171, 172, 173, 195}, {196, 172, 173, 174, 150}, {197, 173, 174}, {152, 200, 176, 175}, {176, 153, 201, 175}, {177, 203}, {178, 156}, {179, 180, 205}, {179, 180, 158}, {160, 181, 182, 207}, {161, 208, 181, 182, 183}, {184, 209, 182, 183}, {162, 210, 183, 184, 185}, {184, 185, 163, 211}, {186, 187}, {186, 187, 213}, {214, 188, 189, 166}, {167, 215, 188, 189, 190}, {189, 190, 191}, {192, 168, 216, 190, 191}, {192, 193, 169, 217, 191}, {192, 193, 194, 170, 218}, {193, 194, 195, 171, 219}, {196, 194, 195, 172}, {195, 196, 197, 173, 220}, {198, 196, 197, 174}, {221, 197, 198, 199}, {200, 198, 199}, {199, 200, 201, 175, 222}, {176, 201, 202, 200}, {201, 202, 203}, {202, 203, 204, 177, 223}, {224, 203, 204}, {226, 179, 205}, {206, 207}, {228, 206, 207, 208, 181}, {229, 207, 208, 209, 182}, {230, 208, 209, 210, 183}, {184, 209, 210, 211}, {185, 210, 211}, {212, 231}, {232, 187, 213}, {188, 214, 215}, {234, 189, 214, 215}, {216, 217, 236, 191}, {192, 237, 216, 217, 218}, {193, 238, 217, 218, 219}, {218, 194, 219, 239}, {241, 196, 220}, {243, 221, 198}, {200, 245, 222}, {224, 203, 223}, {224, 248, 204, 223}, {225, 249}, {226, 227, 205}, {250, 226, 227}, {228, 229, 207}, {228, 229, 230, 208, 252}, {209, 229, 230, 253}, {257, 212, 231}, {232, 233, 258, 213}, {232, 233}, {234, 235, 215}, {234, 235, 236, 260}, {261, 235, 236, 237, 216}, {262, 236, 237, 238, 217}, {263, 237, 238, 239, 218}, {264, 238, 239, 240, 219}, {240, 241, 265, 239}, {266, 240, 241, 242, 220}, {241, 242, 243}, {267, 242, 243, 244, 221}, {268, 243, 244, 245}, {269, 244, 245, 246, 222}, {270, 245, 246, 247}, {271, 246, 247}, {248, 224, 272}, {249, 225}, {275, 250, 227, 251}, {250, 251}, {253, 277, 252, 229}, {230, 278, 252, 253, 254}, {279, 253, 254, 255}, {256, 280, 254, 255}, {256, 257, 281, 255}, {256, 257, 282, 231}, {232, 258, 284}, {259, 286}, {235, 260, 261}, {288, 260, 261, 262, 236}, {289, 261, 262, 263, 237}, {290, 262, 263, 264, 238}, {291, 263, 264, 265, 239}, {292, 264, 265, 266, 240}, {241, 266, 293, 265}, {267, 268, 295, 243}, {296, 267, 268, 269, 244}, {297, 268, 269, 270, 245}, {298, 269, 270, 271, 246}, {299, 247, 270, 271}, {272, 248, 301, 273}, {272, 273, 302}, {274, 275}, {274, 304, 250, 275}, {276, 277}, {306, 276, 277, 278, 252}, {307, 277, 278, 279, 253}, {280, 278, 254, 279}, {280, 281, 279, 255}, {256, 308, 280, 281, 282}, {257, 282, 283, 281}, {282, 283, 284, 309}, {258, 310, 283, 284, 285}, {284, 285, 286}, {259, 285, 286, 287}, {311, 286, 287}, {288, 289, 261, 313}, {288, 289, 290, 262, 314}, {289, 290, 291, 263, 315}, {290, 291, 292, 264, 316}, {291, 292, 293, 265, 317}, {292, 293, 294, 266, 318}, {319, 293, 294, 295}, {320, 294, 295, 296, 267}, {321, 295, 296, 297, 268}, {322, 296, 297, 298, 269}, {323, 297, 298, 299, 270}, {324, 298, 299, 300, 271}, {299, 300, 301}, {325, 300, 301, 302, 272}, {326, 301, 302, 303, 273}, {327, 302, 303}, {304, 305, 275}, {304, 305, 329}, {330, 306, 307, 277}, {331, 306, 307, 278}, {281, 308, 334}, {336, 283, 309, 310}, {284, 309, 310}, {312, 338, 287, 311}, {312, 313, 311}, {288, 339, 312, 313, 314}, {289, 340, 313, 314, 315}, {290, 341, 314, 315, 316}, {291, 342, 315, 316, 317}, {292, 343, 316, 317, 318}, {293, 344, 317, 318, 319}, {318, 320, 294, 319}, {320, 321, 295, 345, 319}, {320, 321, 322, 296, 346}, {321, 322, 323, 297, 347}, {322, 323, 324, 298, 348}, {323, 299, 324, 349}, {301, 325, 326}, {325, 326, 327, 302, 351}, {352, 303, 326, 327}, {329}, {329, 354, 305}, {356, 330, 331, 306}, {357, 330, 331, 332, 307}, {331, 332, 333}, {358, 332, 333, 334}, {359, 333, 334, 335, 308}, {336, 360, 334, 335}, {336, 309, 335}, {337, 338, 363}, {337, 338, 364, 311}, {313, 339, 340, 366}, {367, 339, 340, 341, 314}, {368, 340, 341, 342, 315}, {369, 341, 342, 343, 316}, {370, 342, 343, 344, 317}, {344, 371, 318, 343}, {320, 345, 346, 373}, {321, 374, 345, 346, 347}, {322, 375, 346, 347, 348}, {323, 376, 347, 348, 349}, {324, 377, 348, 349, 350}, {378, 349, 350}, {352, 380, 326, 351}, {352, 381, 351, 327}, {353, 354, 382}, {353, 354, 355, 329, 383}, {384, 354, 355, 356}, {385, 355, 356, 357, 330}, {386, 331, 356, 357}, {387, 333, 358, 359}, {388, 358, 359, 360, 334}, {360, 359, 335}, {361, 362, 390}, {361, 362, 363, 391}, {392, 362, 363, 364, 337}, {393, 363, 364, 365, 338}, {364, 365, 366}, {394, 365, 366, 367, 339}, {395, 366, 367, 368, 340}, {396, 367, 368, 369, 341}, {397, 368, 369, 370, 342}, {398, 369, 370, 371, 343}, {399, 370, 371, 372, 344}, {371, 372, 373}, {400, 372, 373, 374, 345}, {401, 373, 374, 375, 346}, {402, 374, 375, 376, 347}, {403, 375, 376, 377, 348}, {376, 377, 378, 349}, {377, 378, 379, 350}, {404, 378, 379, 380}, {405, 379, 380, 381, 351}, {352, 380, 381, 406}, {407, 353, 382, 383}, {384, 354, 408, 382, 383}, {384, 385, 355, 409, 383}, {384, 385, 386, 356, 410}, {385, 386, 411, 357}, {387, 388, 413, 358}, {387, 388, 414, 359}, {389, 390}, {416, 389, 390, 391, 361}, {417, 390, 391, 392, 362}, {392, 393, 363, 391}, {392, 393, 364}, {394, 395, 419, 366}, {394, 395, 396, 367}, {420, 395, 396, 397, 368}, {421, 396, 397, 398, 369}, {370, 397, 398, 399}, {371, 422, 398, 399}, {400, 401, 373}, {424, 400, 401, 402, 374}, {425, 401, 402, 403, 375}, {376, 426, 402, 403}, {379, 404, 405, 429}, {430, 404, 405, 406, 380}, {431, 381, 406, 405}, {408, 433, 382, 407}, {434, 407, 408, 409, 383}, {384, 435, 408, 409, 410}, {385, 436, 409, 410, 411}, {386, 411, 412, 410}, {411, 412, 413, 437}, {387, 438, 412, 413, 414}, {388, 439, 413, 414, 415}, {440, 414, 415}, {416, 417, 442, 390}, {416, 417, 443, 391}, {418, 419, 446}, {418, 394, 419, 447}, {448, 396, 420, 421}, {420, 421, 397}, {423, 450, 422, 399}, {451, 422, 423}, {424, 401, 425, 452}, {453, 424, 425, 426, 402}, {454, 425, 426, 427, 403}, {426, 427, 428, 455}, {456, 427, 428, 429}, {457, 428, 429, 430, 404}, {431, 405, 430, 429}, {430, 406, 431}, {432, 433}, {458, 432, 433, 434, 407}, {459, 433, 434, 435, 408}, {460, 434, 435, 436, 409}, {410, 435, 436, 461}, {412, 437, 438, 463}, {439, 413, 438, 437}, {440, 438, 414, 439}, {464, 439, 440, 441, 415}, {440, 441, 442, 465}, {416, 441, 442, 443}, {417, 466, 442, 443, 444}, {443, 444, 445, 467}, {444, 445, 446}, {418, 468, 445, 446, 447}, {419, 469, 446, 447}, {448, 420, 470}, {472, 449, 450}, {449, 450, 451, 422, 473}, {474, 450, 451, 423}, {424, 476, 452, 453}, {452, 453, 454, 425, 477}, {453, 454, 455, 426, 478}, {456, 427, 454, 455}, {455, 456, 457, 428, 479}, {456, 457, 429, 480}, {433, 458, 459, 484}, {458, 434, 459, 460}, {485, 459, 460, 461, 435}, {486, 460, 461, 462, 436}, {487, 461, 462, 463}, {488, 437, 462, 463}, {464, 465, 440}, {464, 465, 441, 491}, {466, 443, 493, 467}, {466, 467, 444, 494}, {468, 469, 446}, {496, 468, 469, 447}, {448, 497, 470, 471}, {472, 470, 471}, {472, 449, 473, 471}, {450, 498, 472, 473, 474}, {451, 499, 473, 474, 475}, {474, 475, 476, 500}, {452, 476, 477, 475}, {453, 476, 477, 478}, {477, 454, 478}, {456, 480, 479}, {480, 481, 457, 502, 479}, {480, 481, 482, 503}, {504, 481, 482}, {505, 483, 484}, {506, 458, 483, 484}, {508, 460, 485, 486}, {485, 486, 487, 461, 509}, {486, 487, 488, 462, 510}, {487, 488, 489, 463, 511}, {488, 489, 490, 512}, {489, 490, 513}, {515, 465, 491, 492}, {516, 491, 492, 493}, {517, 492, 493, 494, 466}, {518, 493, 494, 495, 467}, {494, 495}, {496, 469}, {520, 497, 470}, {522, 473, 498, 499}, {523, 498, 499, 500, 474}, {475, 500, 524, 499}, {501, 527}, {480, 529, 502, 503}, {481, 530, 502, 503, 504}, {504, 482, 531, 503}, {505, 506, 483, 532}, {484, 533, 505, 506, 507}, {506, 507, 508}, {485, 534, 507, 508, 509}, {508, 509, 486, 510}, {487, 535, 509, 510, 511}, {512, 488, 536, 510, 511}, {512, 513, 489, 537, 511}, {512, 513, 514, 490, 538}, {539, 513, 514, 515}, {514, 515, 516, 491, 540}, {515, 516, 517, 492, 541}, {516, 517, 518, 493, 542}, {543, 517, 518, 494}, {520}, {520, 497, 547}, {521, 522, 549}, {523, 521, 522, 498}, {522, 523, 524, 499}, {550, 523, 524, 525, 500}, {524, 525, 551}, {553, 526, 527}, {554, 526, 527, 528, 501}, {528, 529, 555, 527}, {556, 528, 529, 530, 502}, {557, 529, 530, 531, 503}, {504, 530, 531, 558}, {505, 532, 533, 559}, {560, 506, 532, 533}, {562, 508, 534}, {536, 564, 510, 535}, {565, 535, 536, 537, 511}, {512, 537, 538, 536}, {513, 566, 537, 538, 539}, {514, 567, 538, 539, 540}, {539, 515, 540, 541}, {516, 568, 540, 541, 542}, {517, 569, 541, 542, 543}, {544, 518, 570, 542, 543}, {544, 543}, {545, 546, 571}, {545, 546, 547, 572}, {546, 547, 548, 520, 573}, {547, 548, 549, 574}, {521, 548, 549, 575}, {578, 524, 550, 551}, {579, 550, 551, 552, 525}, {552, 553, 580, 551}, {581, 552, 553, 554, 526}, {582, 553, 554, 555, 527}, {583, 554, 555, 556, 528}, {584, 555, 556, 557, 529}, {585, 556, 557, 558, 530}, {531, 557, 558}, {560, 586, 532, 559}, {587, 559, 560, 561, 533}, {560, 561, 562}, {561, 562, 563, 534}, {562, 563, 564, 588}, {589, 563, 564, 565, 535}, {536, 564, 565, 590}, {592, 538, 566, 567}, {593, 539, 566, 567}, {568, 569, 595, 541}, {596, 568, 569, 570, 542}, {569, 570, 597, 543}, {545, 571, 572, 599}, {546, 571, 572, 573}, {547, 600, 572, 573, 574}, {548, 601, 573, 574, 575}, {576, 549, 602, 574, 575}, {576, 577, 603, 575}, {576, 577, 578, 604}, {577, 578, 579, 550, 605}, {578, 579, 580, 551, 606}, {552, 579, 580, 581}, {580, 581, 582, 553, 607}, {608, 581, 582, 583, 554}, {584, 555, 582, 583}, {584, 585, 556, 583}, {584, 585, 557, 609}, {611, 586, 587, 559}, {560, 586, 587, 612}, {563, 588, 589, 615}, {616, 588, 589, 590, 564}, {617, 589, 590, 591, 565}, {592, 590, 591}, {618, 591, 592, 593, 566}, {619, 592, 593, 594, 567}, {593, 594, 595, 620}, {621, 594, 595, 596, 568}, {622, 595, 596, 597, 569}, {570, 596, 597, 623}, {625, 598, 599}, {626, 571, 598, 599}, {600, 601, 628, 573}, {629, 600, 601, 602, 574}, {630, 601, 602, 603, 575}, {576, 631, 602, 603, 604}, {577, 632, 603, 604, 605}, {578, 633, 604, 605, 606}, {634, 579, 605, 606}, {608, 635, 581, 607}, {608, 636, 582, 607}, {585, 609, 610, 639}, {640, 609, 610}, {641, 586, 611, 612}, {642, 611, 612, 613, 587}, {643, 612, 613, 614}, {644, 613, 614, 615}, {645, 614, 615, 616, 588}, {646, 615, 616, 617, 589}, {616, 617, 590, 647}, {592, 618, 619, 648}, {649, 618, 619, 620, 593}, {650, 619, 620, 621, 594}, {651, 620, 621, 622, 595}, {652, 621, 622, 623, 596}, {624, 597, 622, 623}, {624, 625, 653, 623}, {654, 624, 625, 626, 598}, {625, 626, 627, 599}, {626, 627, 628, 655}, {656, 627, 628, 629, 600}, {657, 628, 629, 630, 601}, {658, 629, 630, 631, 602}, {659, 630, 631, 632, 603}, {660, 631, 632, 633, 604}, {661, 632, 633, 634, 605}, {633, 634, 606}, {663, 635, 636, 607}, {608, 664, 635, 636, 637}, {665, 636, 637, 638}, {666, 637, 638, 639}, {640, 609, 638, 639}, {640, 610, 667, 639}, {641, 642, 611}, {641, 642, 643, 612, 668}, {642, 643, 644, 613}, {643, 644, 645, 614}, {644, 645, 646, 615, 669}, {645, 646, 647, 616, 670}, {671, 617, 646, 647}, {648, 649, 618, 673}, {648, 649, 650, 619}, {649, 650, 651, 620}, {674, 650, 651, 652, 621}, {651, 652, 622}, {624, 676, 653, 654}, {625, 653, 654, 677}, {656, 679, 627, 655}, {656, 657, 628, 655}, {680, 656, 657, 658, 629}, {681, 657, 658, 659, 630}, {682, 658, 659, 660, 631}, {632, 659, 660, 661}, {633, 683, 660, 661}, {662, 663}, {685, 662, 663, 664, 635}, {686, 663, 664, 665, 636}, {687, 664, 665, 666, 637}, {688, 665, 666, 638}, {640, 667}, {642, 691, 668}, {670, 694, 669, 645}, {646, 695, 669, 670, 671}, {672, 647, 696, 670, 671}, {672, 673, 697, 671}, {648, 673, 698, 672}, {674, 651, 700}, {675, 676, 702}, {675, 676, 677, 653, 703}, {704, 676, 677, 678, 654}, {705, 677, 678, 679}, {655, 706, 678, 679}, {680, 657, 681, 708}, {709, 680, 681, 682, 658}, {681, 682, 659, 710}, {712, 683, 684, 661}, {713, 683, 684}, {715, 685, 686, 663}, {664, 685, 686, 687}, {716, 686, 687, 688, 665}, {717, 687, 688, 689, 666}, {688, 689, 718}, {720, 690, 691}, {721, 690, 691, 692, 668}, {691, 692, 693}, {722, 692, 693, 694}, {695, 669, 694, 693}, {723, 694, 695, 696, 670}, {724, 695, 696, 697, 671}, {672, 725, 696, 697, 698}, {673, 726, 697, 698, 699}, {698, 699, 727}, {728, 674, 700, 701}, {700, 701, 702}, {675, 729, 701, 702, 703}, {704, 676, 702, 703}, {704, 705, 677, 730, 703}, {704, 705, 706, 678}, {705, 706, 707, 679}, {706, 707, 708, 731}, {707, 708, 709, 680, 732}, {708, 709, 710, 681, 733}, {709, 710, 711, 682, 734}, {712, 735, 710, 711}, {712, 713, 683, 711}, {736, 712, 713, 714, 684}, {713, 714, 715, 737}, {714, 715, 685}, {739, 716, 717, 687}, {740, 716, 717, 718, 688}, {689, 717, 718, 719}, {741, 718, 719}, {720, 721, 690, 742}, {720, 721, 691, 743}, {745, 722, 693}, {746, 723, 724, 695}, {747, 723, 724, 725, 696}, {748, 724, 725, 726, 697}, {749, 725, 726, 727, 698}, {699, 750, 726, 727}, {728, 752, 700}, {729, 754, 702}, {704, 730, 756}, {731, 732, 707}, {708, 732, 733, 731}, {709, 732, 733, 734}, {710, 759, 733, 734, 735}, {760, 711, 734, 735}, {736, 713, 762, 737}, {736, 737, 714, 763}, {738, 739, 765}, {738, 739, 740, 716, 766}, {739, 740, 717, 767}, {769, 741, 719}, {720, 770, 742, 743}, {771, 742, 743, 744, 721}, {744, 745, 772, 743}, {744, 745, 722, 773}, {746, 723, 747}, {774, 746, 747, 748, 724}, {775, 747, 748, 749, 725}, {776, 748, 749, 750, 726}, {777, 749, 750, 751, 727}, {752, 778, 750, 751}, {779, 751, 752, 753, 728}, {752, 753, 754, 780}, {729, 754, 755, 753}, {754, 755, 756, 781}, {782, 755, 756, 757, 730}, {756, 757, 758, 783}, {784, 757, 758}, {760, 788, 734, 759}, {789, 759, 760, 761, 735}, {760, 761, 762, 790}, {736, 791, 761, 762, 763}, {737, 762, 763, 764}, {763, 764, 765}, {738, 764, 765, 766}, {739, 792, 765, 766, 767}, {768, 740, 793, 766, 767}, {768, 769, 794, 767}, {768, 769, 795, 741}, {770, 771, 742}, {770, 771, 772, 743}, {771, 772, 773, 744, 796}, {745, 797, 772, 773}, {800, 747, 774, 775}, {801, 774, 775, 776, 748}, {802, 775, 776, 777, 749}, {803, 776, 777, 778, 750}, {777, 778, 779, 751}, {804, 778, 779, 780, 752}, {753, 779, 780, 805}, {755, 781, 782, 807}, {808, 781, 782, 783, 756}, {784, 757, 782, 783}, {809, 783, 784, 785, 758}, {784, 785, 786, 810}, {785, 786, 787, 811}, {786, 787, 788, 812}, {813, 787, 788, 789, 759}, {814, 788, 789, 790, 760}, {815, 789, 790, 791, 761}, {816, 762, 790, 791}, {792, 793, 818, 766}, {792, 793, 794, 767}, {768, 819, 793, 794, 795}, {769, 794, 795, 820}, {797, 796, 772}, {773, 796, 797, 798}, {797, 798, 799}, {800, 798, 799}, {800, 801, 774, 799}, {800, 801, 802, 775}, {776, 801, 802, 803}, {777, 802, 803}, {779, 804, 805}, {806, 780, 805, 804}, {805, 806, 807}, {808, 781, 806, 807}, {808, 782, 807}, {784, 809, 810}, {785, 810, 811, 809}, {786, 811, 810, 812}, {811, 787, 812, 813}, {814, 788, 813, 812}, {813, 789, 814, 815}, {814, 816, 790, 815}, {816, 817, 815, 791}, {816, 817}, {792, 818}, {794, 819, 820}, {819, 795, 820}];
input = [|263, 190|273, 406|324, 482|241, 272|450, 545|112, 4|19, 50|334, 312|445, 443|383, 433|612, 513|462, 438|250, 250|137, 3|56, 24|306, 256|470, 267|590, 590|788, 734|171, 193|467, 515|690, 773|437, 388|22, 20|451, 342|756, 780|618, 489|586, 588|443, 568|595, 567|];
V = 820;
A = 30;
E = 1265;

maxTime = 14